\ENCODING=ISO-8859-1
\Problem name: diet

Minimize
 obj: x1 + x2 + x3 + x4 + 100000 x28 + 100000 x29 + 100000 x30 + 100000 x31
      + 100000 x32 + 100000 x33 + 100000 x34 + 100000 x35 + 100000 x36
      + 100000 x37 + 100000 x38 + 100000 x39 + 100000 x40 + 100000 x41
      + 100000 x42 + 100000 x43 + 100000 x44 + 100000 x45 + 100000 x46
      + 100000 x47 + 100000 x48 + 100000 x49 + 100000 x50 + x51 + x52 + x53
      + x54 + x55 + x56 + x57 + x58 + x59 + x60 + x61 + x62 + x63 + x64 + x65
      + x66 + x67 + x68 + x69 + x70 + x71 + x72 + x73 + x74 + x75 + x76 + x77
      + x78 + x79 + x80 + x81 + x82 + x83 + x84 + x85 + x86 + x87 + x88 + x89
      + x90 + x91 + x92 + x93 + x94 + x95 + x96 + x97 + x98 + x99 + x100 + x101
      + x102 + x103 + x104 + x105 + x106 + x107 + x108 + x109 + x110 + x111
      + x112 + x113 + x114 + x115 + x116 + x117 + x118 + x119 + x120 + x121
      + x122 + x123 + x124 + x125 + x126 + x127 + x128 + x129 + x130 + x131
      + x132 + x133 + x134 + x135 + x136 + x137 + x138 + x139 + x140 + x141
      + x142 + x143 + x144 + x145 + x146 + x147 + x148 + x149 + x150 + x151
      + x152 + x153 + x154 + x155 + x156 + x157 + x158 + x159 + x160 + x161
      + x162 + x163 + x164 + x165 + x166 + x167 + x168 + x169 + x170 + x171
      + x172 + x173 + x174 + x175 + x176 + x177 + x178 + x179 + x180 + x181
      + x182 + x183 + x184 + x185 + x186 + x187 + x188 + x189 + x190 + x191
      + x192 + x193 + x194 + x195 + x196 + x197 + x198 + x199 + x200 + x201
      + x202 + x203 + x204 + x205 + x206 + x207 + x208 + x209 + x210 + x211
      + x212 + x213 + x214 + x215 + x216 + x217 + x218 + x219 + x220 + x221
      + x222 + x223 + x224 + x225 + x226 + x227 + x228 + x229 + x230 + x231
      + x232 + x233 + x234 + x235 + x236 + x237 + x238 + x239 + x240 + x241
      + x242 + x243 + x244 + x245 + x246 + x247 + x248 + x249 + x250 + x251
      + x252 + x253 + x254
Subject To
 c1:  x1 - x5 + x28 + x54 + x55 + x56 + x57 + x58 + x60 + x63 + x64 + x66 + x69
      + x72 + x75 + x78 + x81 + x84 + x87 + x90 + x93 + x96 + x99 + x102 + x105
      + x108 + x111 + x114 + x117 + x123 + x126 + x129 + x132 + x135 + x138
      + x141 + x144 + x147 + x150 + x153 + x156 + x159 + x162 + x165 + x168
      + x171 + x174 + x183 + x186 + x189 + x192 + x195 + x198 + x201 + x204
      + x207 + x210 + x213 + x216 + x219 + x222 + x225 + x231 + x234 + x237
      + x240 + x243 + x246 + x249 + x252  = 1
 c2:  x1 - x6 + x29 + x51 + x57 + x67 + x68 + x72 + x73 + x74 + x75 + x78 + x82
      + x84 + x88 + x90 + x94 + x97 + x100 + x103 + x106 + x109 + x111 + x115
      + x118 + x120 + x121 + x124 + x127 + x130 + x133 + x135 + x138 + x142
      + x145 + x148 + x151 + x153 + x157 + x160 + x162 + x165 + x169 + x171
      + x175 + x177 + x178 + x180 + x181 + x184 + x187 + x190 + x193 + x196
      + x199 + x202 + x204 + x207 + x210 + x214 + x217 + x220 + x223 + x226
      + x228 + x229 + x232 + x235 + x238 + x241 + x243 + x249 + x252 + x254
       = 1
 c3:  x1 - x7 + x30 + x51 + x60 + x61 + x62 + x69 + x73 + x75 + x76 + x78 + x82
      + x84 + x89 + x91 + x94 + x96 + x100 + x103 + x110 + x112 + x116 + x119
      + x120 + x123 + x127 + x130 + x133 + x136 + x139 + x142 + x145 + x152
      + x154 + x156 + x161 + x163 + x166 + x169 + x172 + x174 + x177 + x180
      + x185 + x187 + x189 + x192 + x196 + x198 + x202 + x204 + x208 + x211
      + x214 + x217 + x220 + x222 + x225 + x228 + x233 + x235 + x237 + x241
      + x244 + x246 + x250 + x251  = 1
 c4:  x1 - x8 + x31 + x51 + x63 + x64 + x65 + x66 + x67 + x70 + x72 + x77 + x79
      + x83 + x85 + x91 + x94 + x96 + x99 + x104 + x105 + x106 + x108 + x112
      + x114 + x117 + x120 + x124 + x127 + x129 + x134 + x137 + x140 + x142
      + x144 + x147 + x148 + x151 + x154 + x157 + x159 + x163 + x167 + x169
      + x172 + x175 + x177 + x181 + x184 + x188 + x191 + x192 + x197 + x198
      + x202 + x204 + x208 + x212 + x214 + x217 + x221 + x222 + x225 + x228
      + x232 + x234 + x237 + x242 + x245 + x246  = 1
 c5:  x2 - x9 + x32 + x51 + x57 + x58 + x60 + x65 + x68 + x69 + x71 + x73 + x75
      + x80 + x83 + x89 + x91 + x93 + x98 + x101 + x102 + x107 + x110 + x112
      + x116 + x117 + x121 + x125 + x128 + x129 + x133 + x137 + x139 + x143
      + x146 + x149 + x151 + x155 + x156 + x160 + x163 + x166 + x170 + x173
      + x176 + x179 + x182 + x183 + x188 + x189 + x193 + x197 + x199 + x202
      + x205 + x208 + x212 + x215 + x218 + x219 + x224 + x226 + x229 + x231
      + x235 + x239 + x241 + x245  = 1
 c6:  x2 - x10 + x33 + x51 + x54 + x61 + x63 + x65 + x68 + x70 + x76 + x82
      + x85 + x86 + x87 + x94 + x98 + x101 + x107 + x110 + x113 + x114 + x122
      + x123 + x127 + x130 + x134 + x137 + x143 + x145 + x147 + x150 + x155
      + x161 + x164 + x169 + x173 + x176 + x177 + x180 + x185 + x188 + x191
      + x192 + x195 + x200 + x203 + x206 + x208 + x211 + x216 + x220 + x222
      + x225 + x229 + x232 + x236 + x242 + x244 + x246 + x247 + x249 + x250
      + x253  = 1
 c7:  x3 - x11 + x34 + x52 + x57 + x58 + x59 + x61 + x62 + x63 + x64 + x76
      + x80 + x81 + x86 + x87 + x92 + x95 + x97 + x99 + x102 + x105 + x110
      + x111 + x116 + x118 + x122 + x124 + x130 + x137 + x138 + x140 + x141
      + x144 + x148 + x155 + x156 + x158 + x159 + x164 + x167 + x171 + x175
      + x179 + x181 + x184 + x187 + x194 + x196 + x200 + x201 + x205 + x209
      + x211 + x214 + x216 + x219 + x224 + x227 + x230 + x231 + x234 + x237
      + x238 + x240 + x243 + x246 + x247 + x250  = 1
 c8:  x2 - x12 + x35 + x52 + x55 + x60 + x62 + x66 + x67 + x68 + x77 + x78
      + x83 + x86 + x87 + x88 + x92 + x95 + x97 + x99 + x103 + x107 + x108
      + x115 + x118 + x120 + x124 + x126 + x131 + x132 + x133 + x140 + x141
      + x146 + x149 + x152 + x155 + x157 + x160 + x164 + x167 + x170 + x172
      + x177 + x182 + x186 + x189 + x191 + x195 + x200 + x201 + x206 + x207
      + x210 + x213 + x218 + x221 + x229 + x237 + x245 + x250 + x251 + x254
       = 1
 c9:  x3 - x13 + x36 + x52 + x54 + x61 + x62 + x65 + x66 + x68 + x70 + x71
      + x73 + x74 + x75 + x79 + x85 + x87 + x90 + x92 + x94 + x101 + x102
      + x103 + x105 + x108 + x113 + x118 + x122 + x125 + x126 + x129 + x132
      + x135 + x137 + x138 + x142 + x144 + x148 + x150 + x153 + x158 + x159
      + x166 + x168 + x171 + x175 + x179 + x181 + x183 + x191 + x194 + x196
      + x200 + x201 + x206 + x207 + x215 + x218 + x220 + x223 + x226 + x229
      + x231 + x232 + x234 + x235 + x239 + x240 + x243 + x250  = 1
 c10: x1 - x14 + x37 + x52 + x55 + x69 + x71 + x77 + x80 + x82 + x84 + x89
      + x90 + x95 + x96 + x97 + x103 + x105 + x108 + x113 + x114 + x119 + x122
      + x124 + x127 + x128 + x131 + x134 + x137 + x139 + x142 + x148 + x152
      + x154 + x157 + x162 + x164 + x165 + x168 + x173 + x174 + x175 + x178
      + x181 + x184 + x187 + x190 + x192 + x193 + x200 + x201 + x206 + x209
      + x211 + x213 + x223 + x227 + x228 + x232 + x236 + x239 + x240 + x244
      + x247 + x248 + x251 + x253 + x254  = 1
 c11: x2 - x15 + x38 + x52 + x55 + x64 + x69 + x73 + x74 + x80 + x82 + x85
      + x88 + x90 + x95 + x96 + x100 + x104 + x107 + x112 + x115 + x117 + x121
      + x125 + x126 + x130 + x133 + x136 + x140 + x143 + x146 + x149 + x151
      + x155 + x158 + x161 + x163 + x165 + x166 + x168 + x169 + x172 + x176
      + x178 + x180 + x184 + x185 + x186 + x190 + x193 + x195 + x199 + x203
      + x208 + x212 + x213 + x214 + x216 + x221 + x224 + x225 + x226 + x230
      + x233 + x235 + x238 + x241 + x244 + x247 + x248 + x252  = 1
 c12: x2 - x16 + x39 + x52 + x55 + x59 + x66 + x71 + x74 + x76 + x79 + x82
      + x85 + x88 + x92 + x93 + x98 + x99 + x104 + x107 + x109 + x112 + x114
      + x115 + x117 + x119 + x120 + x125 + x128 + x132 + x136 + x138 + x143
      + x146 + x149 + x151 + x153 + x156 + x161 + x162 + x165 + x168 + x173
      + x174 + x179 + x182 + x185 + x187 + x188 + x189 + x193 + x195 + x203
      + x204 + x206 + x210 + x215 + x218 + x221 + x224 + x227 + x230 + x233
      + x236 + x238 + x241 + x242 + x244 + x248  = 1
 c13: x3 - x17 + x40 + x53 + x55 + x58 + x63 + x65 + x70 + x73 + x76 + x79
      + x83 + x86 + x89 + x91 + x95 + x98 + x100 + x104 + x106 + x108 + x109
      + x111 + x114 + x119 + x121 + x128 + x129 + x130 + x134 + x135 + x139
      + x141 + x144 + x147 + x151 + x152 + x154 + x158 + x159 + x164 + x167
      + x170 + x176 + x179 + x181 + x185 + x186 + x189 + x194 + x196 + x197
      + x200 + x203 + x205 + x207 + x208 + x212 + x215 + x217 + x218 + x219
      + x220 + x222 + x223 + x227 + x230 + x232 + x234 + x238 + x242 + x243
      + x247 + x249 + x251 + x253 + x254  = 1
 c14: x3 - x18 + x41 + x53 + x56 + x59 + x64 + x67 + x69 + x70 + x71 + x72
      + x77 + x81 + x86 + x88 + x92 + x93 + x98 + x99 + x101 + x103 + x105
      + x110 + x111 + x113 + x115 + x117 + x122 + x123 + x128 + x131 + x134
      + x135 + x139 + x143 + x146 + x147 + x152 + x156 + x159 + x160 + x162
      + x167 + x170 + x172 + x175 + x178 + x182 + x184 + x186 + x190 + x193
      + x197 + x198 + x199 + x203 + x206 + x209 + x210 + x211 + x215 + x216
      + x221 + x224 + x227 + x230 + x231 + x235 + x239 + x241 + x245 + x252
      + x253  = 1
 c15: x2 - x19 + x42 + x53 + x56 + x57 + x59 + x66 + x71 + x72 + x77 + x79
      + x81 + x85 + x89 + x91 + x95 + x97 + x101 + x104 + x106 + x109 + x113
      + x116 + x119 + x121 + x124 + x125 + x128 + x129 + x133 + x136 + x140
      + x143 + x144 + x145 + x148 + x150 + x153 + x155 + x158 + x160 + x163
      + x167 + x168 + x171 + x173 + x174 + x179 + x182 + x183 + x187 + x190
      + x194 + x196 + x198 + x202 + x205 + x209 + x212 + x215 + x218 + x220
      + x224 + x227 + x230 + x233 + x236 + x239 + x242 + x245 + x247 + x251
      + x253 + x254  = 1
 c16: x3 - x20 + x43 + x53 + x54 + x58 + x59 + x61 + x62 + x67 + x74 + x76
      + x77 + x80 + x83 + x84 + x89 + x92 + x96 + x101 + x102 + x106 + x109
      + x113 + x116 + x118 + x120 + x125 + x126 + x131 + x134 + x135 + x140
      + x145 + x147 + x152 + x153 + x158 + x161 + x162 + x166 + x170 + x173
      + x174 + x178 + x182 + x185 + x188 + x191 + x194 + x197 + x199 + x205
      + x209 + x211 + x213 + x217 + x219 + x224 + x226 + x228 + x231 + x236
      + x239 + x240 + x244 + x248 + x249 + x253  = 1
 c17: x2 - x21 + x44 + x53 + x56 + x59 + x60 + x64 + x65 + x74 + x77 + x79
      + x80 + x81 + x86 + x87 + x90 + x94 + x98 + x100 + x104 + x107 + x109
      + x112 + x116 + x118 + x122 + x123 + x127 + x131 + x132 + x136 + x140
      + x142 + x143 + x146 + x149 + x150 + x154 + x158 + x161 + x164 + x165
      + x169 + x171 + x176 + x177 + x180 + x185 + x188 + x191 + x192 + x197
      + x199 + x201 + x202 + x206 + x207 + x210 + x214 + x217 + x221 + x222
      + x225 + x229 + x233 + x234 + x237 + x240 + x247 + x248 + x251 + x252
      + x254  = 1
 c18: x3 - x22 + x45 + x53 + x56 + x59 + x61 + x67 + x71 + x78 + x80 + x83
      + x86 + x89 + x91 + x93 + x95 + x98 + x100 + x102 + x106 + x110 + x111
      + x115 + x119 + x121 + x123 + x126 + x131 + x134 + x136 + x138 + x141
      + x146 + x149 + x152 + x154 + x157 + x161 + x163 + x166 + x170 + x172
      + x176 + x179 + x180 + x183 + x186 + x190 + x194 + x197 + x199 + x203
      + x205 + x209 + x212 + x213 + x218 + x219 + x223 + x226 + x228 + x233
      + x236 + x238 + x242 + x243 + x244 + x246 + x248 + x250 + x252 + x253
       = 1
 c19: x3 - x23 + x46 + x53 + x56 + x59 + x60 + x61 + x62 + x63 + x70 + x74
      + x79 + x81 + x83 + x85 + x88 + x91 + x93 + x97 + x101 + x104 + x107
      + x109 + x112 + x116 + x118 + x122 + x123 + x128 + x131 + x132 + x136
      + x139 + x141 + x145 + x149 + x150 + x154 + x157 + x160 + x164 + x166
      + x170 + x172 + x176 + x178 + x182 + x183 + x188 + x191 + x194 + x195
      + x198 + x203 + x205 + x209 + x211 + x215 + x216 + x219 + x223 + x226
      + x230 + x233 + x236 + x239 + x242 + x245 + x248 + x249 + x250 + x251
      + x254  = 1
 c20: x3 - x24 + x47 + x51 + x53 + x56 + x58 + x62 + x63 + x68 + x70 + x76
      + x78 + x80 + x81 + x84 + x88 + x92 + x93 + x97 + x100 + x104 + x106
      + x110 + x113 + x116 + x119 + x121 + x125 + x126 + x131 + x132 + x136
      + x139 + x141 + x146 + x149 + x150 + x155 + x157 + x160 + x164 + x167
      + x170 + x173 + x176 + x178 + x182 + x183 + x186 + x190 + x194 + x197
      + x198 + x201 + x204 + x209 + x212 + x213 + x216 + x221 + x223 + x227
      + x229 + x231 + x236 + x238 + x240 + x245 + x248 + x252  = 1
 c21: x1 - x25 + x48 + x52 + x53 + x56 + x58 + x62 + x65 + x68 + x70 + x72
      + x75 + x79 + x81 + x86 + x88 + x92 + x93 + x98 + x101 + x102 + x106
      + x110 + x113 + x115 + x119 + x122 + x125 + x128 + x131 + x132 + x136
      + x139 + x141 + x145 + x149 + x150 + x155 + x157 + x161 + x163 + x167
      + x170 + x173 + x174 + x178 + x180 + x183 + x186 + x191 + x193 + x195
      + x200 + x203 + x205 + x209 + x212 + x213 + x216 + x221 + x223 + x227
      + x230 + x233 + x234 + x239 + x242 + x245 + x248  = 1
 c22: x3 - x26 + x49 + x52 + x53 + x56 + x58 + x62 + x65 + x68 + x70 + x72
      + x76 + x78 + x81 + x83 + x84 + x87 + x92 + x93 + x97 + x100 + x102
      + x107 + x109 + x113 + x115 + x119 + x121 + x125 + x126 + x131 + x132
      + x137 + x139 + x141 + x145 + x147 + x150 + x154 + x158 + x160 + x163
      + x166 + x168 + x173 + x176 + x178 + x180 + x183 + x188 + x190 + x194
      + x195 + x200 + x203 + x205 + x208 + x212 + x215 + x217 + x221 + x223
      + x227 + x228 + x233 + x236 + x238 + x240 + x245 + x248 + x249 + x251
      + x253  = 1
 c23: x4 - x27 + x50 + x52 + x53 + x54 + x55 + x57 + x60 + x61 + x63 + x64
      + x67 + x68 + x70 + x71 + x72 + x74 + x75 + x76 + x79 + x80 + x81 + x83
      + x84 + x87 + x88 + x91 + x93 + x95 + x98 + x100 + x104 + x107 + x110
      + x111 + x113 + x114 + x115 + x117 + x119 + x122 + x125 + x126 + x129
      + x134 + x137 + x139 + x142 + x143 + x144 + x145 + x149 + x151 + x152
      + x154 + x157 + x159 + x160 + x163 + x165 + x166 + x168 + x169 + x172
      + x176 + x179 + x182 + x184 + x185 + x187 + x188 + x190 + x194 + x195
      + x200 + x201 + x202 + x205 + x209 + x210 + x211 + x213 + x214 + x217
      + x218 + x219 + x220 + x222 + x223 + x225 + x226 + x230 + x233 + x236
      + x239 + x241 + x242 + x245 + x247 + x248 + x249 + x250 + x252 + x253
       = 1
Bounds
 0 <= x1 <= 1
 0 <= x2 <= 1
 0 <= x3 <= 1
 0 <= x4 <= 1
 0 <= x51 <= 1
 0 <= x52 <= 1
 0 <= x53 <= 1
 0 <= x54 <= 1
 0 <= x55 <= 1
 0 <= x56 <= 1
 0 <= x57 <= 1
 0 <= x58 <= 1
 0 <= x59 <= 1
 0 <= x60 <= 1
 0 <= x61 <= 1
 0 <= x62 <= 1
 0 <= x63 <= 1
 0 <= x64 <= 1
 0 <= x65 <= 1
 0 <= x66 <= 1
 0 <= x67 <= 1
 0 <= x68 <= 1
 0 <= x69 <= 1
 0 <= x70 <= 1
 0 <= x71 <= 1
 0 <= x72 <= 1
 0 <= x73 <= 1
 0 <= x74 <= 1
 0 <= x75 <= 1
 0 <= x76 <= 1
 0 <= x77 <= 1
 0 <= x78 <= 1
 0 <= x79 <= 1
 0 <= x80 <= 1
 0 <= x81 <= 1
 0 <= x82 <= 1
 0 <= x83 <= 1
 0 <= x84 <= 1
 0 <= x85 <= 1
 0 <= x86 <= 1
 0 <= x87 <= 1
 0 <= x88 <= 1
 0 <= x89 <= 1
 0 <= x90 <= 1
 0 <= x91 <= 1
 0 <= x92 <= 1
 0 <= x93 <= 1
 0 <= x94 <= 1
 0 <= x95 <= 1
 0 <= x96 <= 1
 0 <= x97 <= 1
 0 <= x98 <= 1
 0 <= x99 <= 1
 0 <= x100 <= 1
 0 <= x101 <= 1
 0 <= x102 <= 1
 0 <= x103 <= 1
 0 <= x104 <= 1
 0 <= x105 <= 1
 0 <= x106 <= 1
 0 <= x107 <= 1
 0 <= x108 <= 1
 0 <= x109 <= 1
 0 <= x110 <= 1
 0 <= x111 <= 1
 0 <= x112 <= 1
 0 <= x113 <= 1
 0 <= x114 <= 1
 0 <= x115 <= 1
 0 <= x116 <= 1
 0 <= x117 <= 1
 0 <= x118 <= 1
 0 <= x119 <= 1
 0 <= x120 <= 1
 0 <= x121 <= 1
 0 <= x122 <= 1
 0 <= x123 <= 1
 0 <= x124 <= 1
 0 <= x125 <= 1
 0 <= x126 <= 1
 0 <= x127 <= 1
 0 <= x128 <= 1
 0 <= x129 <= 1
 0 <= x130 <= 1
 0 <= x131 <= 1
 0 <= x132 <= 1
 0 <= x133 <= 1
 0 <= x134 <= 1
 0 <= x135 <= 1
 0 <= x136 <= 1
 0 <= x137 <= 1
 0 <= x138 <= 1
 0 <= x139 <= 1
 0 <= x140 <= 1
 0 <= x141 <= 1
 0 <= x142 <= 1
 0 <= x143 <= 1
 0 <= x144 <= 1
 0 <= x145 <= 1
 0 <= x146 <= 1
 0 <= x147 <= 1
 0 <= x148 <= 1
 0 <= x149 <= 1
 0 <= x150 <= 1
 0 <= x151 <= 1
 0 <= x152 <= 1
 0 <= x153 <= 1
 0 <= x154 <= 1
 0 <= x155 <= 1
 0 <= x156 <= 1
 0 <= x157 <= 1
 0 <= x158 <= 1
 0 <= x159 <= 1
 0 <= x160 <= 1
 0 <= x161 <= 1
 0 <= x162 <= 1
 0 <= x163 <= 1
 0 <= x164 <= 1
 0 <= x165 <= 1
 0 <= x166 <= 1
 0 <= x167 <= 1
 0 <= x168 <= 1
 0 <= x169 <= 1
 0 <= x170 <= 1
 0 <= x171 <= 1
 0 <= x172 <= 1
 0 <= x173 <= 1
 0 <= x174 <= 1
 0 <= x175 <= 1
 0 <= x176 <= 1
 0 <= x177 <= 1
 0 <= x178 <= 1
 0 <= x179 <= 1
 0 <= x180 <= 1
 0 <= x181 <= 1
 0 <= x182 <= 1
 0 <= x183 <= 1
 0 <= x184 <= 1
 0 <= x185 <= 1
 0 <= x186 <= 1
 0 <= x187 <= 1
 0 <= x188 <= 1
 0 <= x189 <= 1
 0 <= x190 <= 1
 0 <= x191 <= 1
 0 <= x192 <= 1
 0 <= x193 <= 1
 0 <= x194 <= 1
 0 <= x195 <= 1
 0 <= x196 <= 1
 0 <= x197 <= 1
 0 <= x198 <= 1
 0 <= x199 <= 1
 0 <= x200 <= 1
 0 <= x201 <= 1
 0 <= x202 <= 1
 0 <= x203 <= 1
 0 <= x204 <= 1
 0 <= x205 <= 1
 0 <= x206 <= 1
 0 <= x207 <= 1
 0 <= x208 <= 1
 0 <= x209 <= 1
 0 <= x210 <= 1
 0 <= x211 <= 1
 0 <= x212 <= 1
 0 <= x213 <= 1
 0 <= x214 <= 1
 0 <= x215 <= 1
 0 <= x216 <= 1
 0 <= x217 <= 1
 0 <= x218 <= 1
 0 <= x219 <= 1
 0 <= x220 <= 1
 0 <= x221 <= 1
 0 <= x222 <= 1
 0 <= x223 <= 1
 0 <= x224 <= 1
 0 <= x225 <= 1
 0 <= x226 <= 1
 0 <= x227 <= 1
 0 <= x228 <= 1
 0 <= x229 <= 1
 0 <= x230 <= 1
 0 <= x231 <= 1
 0 <= x232 <= 1
 0 <= x233 <= 1
 0 <= x234 <= 1
 0 <= x235 <= 1
 0 <= x236 <= 1
 0 <= x237 <= 1
 0 <= x238 <= 1
 0 <= x239 <= 1
 0 <= x240 <= 1
 0 <= x241 <= 1
 0 <= x242 <= 1
 0 <= x243 <= 1
 0 <= x244 <= 1
 0 <= x245 <= 1
 0 <= x246 <= 1
 0 <= x247 <= 1
 0 <= x248 <= 1
 0 <= x249 <= 1
 0 <= x250 <= 1
 0 <= x251 <= 1
 0 <= x252 <= 1
 0 <= x253 <= 1
 0 <= x254 <= 1
End
